NAME: test1922
TYPE: TSP
DIMENSION: 11
EDGE_WEIGHT_TYPE: EUC_2D
NODE_COORD_SECTION
1 54.71096260112248 7.959898086679207
2 5.42752324487219 73.60346431958862
3 43.07566216203696 82.92739099974374
4 7.0693424260356075 45.4073490722581
5 59.24358925658204 68.7970205437824
6 30.098055144653568 92.9373042105752
7 2.3434605066413927 47.64892374482411
8 85.82296383135093 91.30764328512903
9 10.136214330415228 32.35315717538187
10 2.160440954744869 48.73523360593373
11 78.4515630671298 34.63673751559748
EOF
